results/res_prop_muc/res_Cimatti_mathsat_cores/QF_RDL/fischer3-mutex-11.smt.smt2.out
### boolMucExtractionTime 12124402
