results/res_prop_muc/res_Cimatti_mathsat_cores/QF_RDL/fischer3-mutex-11.smt.smt2.res
unsat
( c10
  c100
  c1000
  c1003
  c1007
  c1008
  c1009
  c1012
  c1013
  c1016
  c1018
  c1019
  c102
  c1020
  c1021
  c1022
  c1027
  c103
  c1031
  c1033
  c1035
  c1038
  c1039
  c1040
  c1043
  c1045
  c1046
  c1054
  c1055
  c1056
  c1057
  c1058
  c1059
  c1060
  c1068
  c1069
  c1071
  c1072
  c1074
  c1078
  c1079
  c1081
  c1083
  c1084
  c1087
  c1088
  c1089
  c1090
  c1093
  c1094
  c1097
  c1099
  c110
  c1100
  c1102
  c1103
  c1106
  c1108
  c1110
  c1111
  c1112
  c1113
  c1116
  c1119
  c112
  c1121
  c1122
  c1127
  c1128
  c1129
  c1130
  c1131
  c1132
  c1133
  c1141
  c1142
  c1143
  c1144
  c1145
  c1151
  c1153
  c1154
  c1157
  c1160
  c1162
  c1163
  c1166
  c1167
  c1170
  c1173
  c1174
  c1175
  c1176
  c1179
  c118
  c1181
  c1183
  c1184
  c1185
  c1186
  c1189
  c119
  c1191
  c1192
  c120
  c1200
  c1201
  c1202
  c1203
  c1204
  c1205
  c1206
  c1214
  c1215
  c122
  c1222
  c1226
  c123
  c1230
  c1234
  c1238
  c1241
  c1242
  c1243
  c1244
  c1245
  c1246
  c1249
  c1251
  c1252
  c1259
  c1261
  c1262
  c1270
  c1271
  c1272
  c1273
  c1274
  c1275
  c1276
  c1277
  c1278
  c1279
  c1280
  c1281
  c1285
  c1289
  c1293
  c1296
  c1297
  c1299
  c13
  c1300
  c1301
  c1309
  c1310
  c1312
  c1315
  c1318
  c132
  c1320
  c1321
  c1325
  c1328
  c133
  c1330
  c1331
  c1333
  c1334
  c1339
  c1343
  c1345
  c1347
  c1349
  c1350
  c1351
  c1352
  c1355
  c1357
  c1358
  c136
  c1366
  c1367
  c1368
  c1369
  c1370
  c1371
  c1372
  c1380
  c1381
  c1382
  c1390
  c1392
  c1393
  c1396
  c1400
  c1401
  c1402
  c1403
  c1406
  c1409
  c1411
  c1412
  c1414
  c1415
  c1418
  c1419
  c142
  c1422
  c1423
  c1424
  c1425
  c1428
  c1431
  c1433
  c1439
  c1440
  c1441
  c1442
  c1443
  c1444
  c1445
  c145
  c1453
  c1454
  c1455
  c1463
  c1465
  c1466
  c1469
  c1472
  c1474
  c1475
  c1478
  c1479
  c148
  c1482
  c1485
  c1487
  c1488
  c1491
  c1493
  c1495
  c1496
  c1497
  c1498
  c15
  c1501
  c1504
  c1505
  c1506
  c1512
  c1513
  c1514
  c1515
  c1516
  c1517
  c1518
  c152
  c1526
  c1527
  c1534
  c1537
  c1538
  c154
  c1542
  c1545
  c1546
  c1550
  c1553
  c1554
  c1555
  c1556
  c1557
  c1558
  c1561
  c1563
  c1564
  c1571
  c1573
  c1574
  c158
  c1582
  c1583
  c1584
  c1585
  c1586
  c1587
  c1588
  c1589
  c1590
  c1591
  c1592
  c1593
  c1597
  c1600
  c1601
  c1605
  c1608
  c1609
  c161
  c1611
  c1612
  c1621
  c1622
  c1624
  c1627
  c163
  c1631
  c1632
  c1636
  c1637
  c164
  c1643
  c1645
  c1646
  c1651
  c1654
  c1655
  c1657
  c1659
  c1660
  c1662
  c1663
  c1664
  c1667
  c1669
  c1670
  c1671
  c1672
  c1674
  c1678
  c1679
  c1680
  c1681
  c1682
  c1683
  c1684
  c1692
  c1693
  c1702
  c1704
  c1712
  c1713
  c1717
  c1718
  c1724
  c1726
  c1727
  c1730
  c1731
  c1733
  c1735
  c1736
  c1737
  c1740
  c1743
  c1744
  c1745
  c1747
  c175
  c1751
  c1752
  c1753
  c1754
  c1755
  c1756
  c1757
  c176
  c1765
  c1766
  c177
  c1775
  c1777
  c1785
  c1786
  c1790
  c1791
  c1797
  c1799
  c18
  c1800
  c1803
  c1805
  c1806
  c1808
  c1809
  c1810
  c1813
  c1816
  c1817
  c1818
  c1820
  c1824
  c1825
  c1826
  c1827
  c1828
  c1829
  c183
  c1830
  c1838
  c1839
  c1846
  c1849
  c185
  c1850
  c1854
  c1857
  c1858
  c1862
  c1865
  c1866
  c1867
  c1868
  c1869
  c1873
  c1875
  c1876
  c1883
  c1885
  c1886
  c1894
  c1895
  c1896
  c1897
  c1898
  c1899
  c19
  c1900
  c1901
  c1902
  c1903
  c1904
  c1905
  c1909
  c191
  c1912
  c1913
  c1917
  c192
  c1920
  c1921
  c1923
  c1924
  c193
  c1933
  c1935
  c1943
  c1944
  c195
  c1952
  c1954
  c1955
  c1957
  c1958
  c196
  c1963
  c1966
  c1967
  c1969
  c1972
  c1974
  c1975
  c1976
  c1979
  c1981
  c1982
  c1983
  c1984
  c1986
  c1990
  c1991
  c1992
  c1993
  c1994
  c1995
  c1996
  c20
  c2004
  c2005
  c2014
  c2016
  c2025
  c2026
  c2033
  c2035
  c2036
  c2038
  c2039
  c2042
  c2045
  c2047
  c2048
  c2049
  c205
  c2052
  c2054
  c2055
  c2056
  c2057
  c2059
  c206
  c2063
  c2064
  c2065
  c2066
  c2067
  c2068
  c2069
  c2077
  c2078
  c208
  c2087
  c2088
  c2098
  c2099
  c2106
  c2108
  c2109
  c2111
  c2112
  c2117
  c2118
  c2120
  c2121
  c2122
  c2125
  c2127
  c2128
  c2129
  c2130
  c2132
  c2136
  c2137
  c2138
  c2139
  c2140
  c2141
  c2142
  c215
  c2150
  c2151
  c2158
  c2161
  c2162
  c2166
  c2169
  c2170
  c2174
  c2177
  c2178
  c218
  c2181
  c2185
  c2187
  c2188
  c2195
  c2197
  c2198
  c2206
  c2207
  c2208
  c2209
  c221
  c2210
  c2211
  c2212
  c2213
  c2214
  c2215
  c2216
  c2217
  c2221
  c2224
  c2225
  c2229
  c2232
  c2233
  c2236
  c2245
  c2255
  c2264
  c2266
  c2267
  c2269
  c227
  c2270
  c2275
  c2278
  c2279
  c2284
  c2291
  c2295
  c2296
  c2298
  c2299
  c2302
  c2303
  c2304
  c2305
  c2306
  c2307
  c2308
  c231
  c2317
  c2326
  c2338
  c234
  c2345
  c2347
  c2348
  c2350
  c2351
  c2357
  c236
  c2364
  c2368
  c2369
  c237
  c2371
  c2372
  c2375
  c2376
  c2377
  c2378
  c2379
  c2380
  c2381
  c2390
  c2399
  c24
  c2409
  c2418
  c2421
  c2423
  c2424
  c243
  c2430
  c2437
  c2441
  c2442
  c2444
  c2445
  c2448
  c2449
  c2450
  c2451
  c2452
  c2453
  c2454
  c246
  c2462
  c2463
  c2470
  c2473
  c2474
  c2478
  c248
  c2481
  c2482
  c2486
  c2489
  c249
  c2490
  c2491
  c2493
  c2494
  c25
  c2500
  c2507
  c2509
  c2510
  c2518
  c2519
  c2520
  c2521
  c2522
  c2523
  c2524
  c2525
  c2526
  c2527
  c2528
  c2529
  c2533
  c2536
  c2537
  c2541
  c2544
  c2545
  c2548
  c2557
  c256
  c2567
  c2576
  c2578
  c258
  c2587
  c2590
  c2591
  c2596
  c26
  c2603
  c2607
  c2608
  c2609
  c2610
  c2611
  c2614
  c2615
  c2616
  c2617
  c2618
  c2619
  c2620
  c2629
  c2638
  c264
  c2648
  c265
  c2657
  c2659
  c266
  c2669
  c2676
  c268
  c2680
  c2681
  c2682
  c2683
  c2684
  c2687
  c2688
  c2689
  c269
  c2690
  c2691
  c2692
  c2693
  c27
  c2702
  c2711
  c2721
  c2730
  c2732
  c2742
  c2749
  c2753
  c2754
  c2756
  c2757
  c2760
  c2761
  c2762
  c2763
  c2764
  c2765
  c2766
  c2774
  c2775
  c278
  c2782
  c2785
  c2786
  c2790
  c2793
  c2794
  c2798
  c28
  c2801
  c2802
  c2805
  c2809
  c2811
  c2812
  c2819
  c2821
  c2822
  c2830
  c2831
  c2832
  c2833
  c2834
  c2835
  c2836
  c2837
  c2838
  c2839
  c2840
  c2841
  c2845
  c2849
  c2853
  c2857
  c2859
  c286
  c2869
  c2879
  c2888
  c2899
  c29
  c290
  c2903
  c2908
  c2919
  c2920
  c2921
  c2922
  c2923
  c2926
  c2927
  c2928
  c2930
  c2931
  c294
  c2940
  c2950
  c2960
  c2969
  c298
  c2981
  c2992
  c2993
  c2994
  c2995
  c2996
  c2999
  c30
  c3000
  c3001
  c3003
  c3004
  c3013
  c302
  c3023
  c3033
  c3042
  c3054
  c306
  c3065
  c3066
  c3067
  c3068
  c3069
  c3072
  c3073
  c3074
  c3076
  c3077
  c3086
  c3087
  c31
  c3115
  c3116
  c3117
  c3118
  c3121
  c3123
  c3131
  c3133
  c3134
  c3142
  c3143
  c3150
  c3151
  c3152
  c3172
  c3182
  c3192
  c32
  c3202
  c3220
  c3229
  c3238
  c3253
  c3263
  c3273
  c3283
  c3293
  c33
  c3302
  c3311
  c3326
  c3336
  c3346
  c3356
  c336
  c3366
  c337
  c3375
  c338
  c3384
  c339
  c3398
  c340
  c3406
  c341
  c3410
  c3414
  c3418
  c3422
  c3426
  c3431
  c3433
  c3435
  c3436
  c345
  c3455
  c3456
  c3457
  c3458
  c3459
  c3460
  c3461
  c3462
  c3463
  c3464
  c3465
  c3467
  c3471
  c3475
  c3478
  c3482
  c3486
  c349
  c3491
  c3495
  c3499
  c3503
  c3507
  c3511
  c3514
  c3515
  c3518
  c3519
  c3522
  c3523
  c3526
  c3527
  c353
  c3530
  c3531
  c3534
  c3535
  c3538
  c3539
  c3540
  c3542
  c3543
  c3544
  c3546
  c3547
  c3548
  c3550
  c3551
  c3552
  c3554
  c3555
  c3556
  c3558
  c3559
  c3560
  c3562
  c3563
  c3564
  c3566
  c3567
  c3568
  c357
  c3570
  c3571
  c3572
  c3574
  c3575
  c3576
  c3578
  c3579
  c3580
  c3582
  c3583
  c3584
  c3586
  c3587
  c3588
  c3590
  c3591
  c3592
  c3594
  c3595
  c3596
  c3598
  c3599
  c3600
  c3601
  c3603
  c3604
  c3605
  c3607
  c3609
  c361
  c3611
  c3613
  c3616
  c3617
  c3619
  c363
  c364
  c365
  c366
  c37
  c373
  c375
  c376
  c379
  c383
  c384
  c385
  c389
  c392
  c395
  c397
  c403
  c407
  c409
  c41
  c410
  c412
  c414
  c415
  c422
  c424
  c427
  c430
  c431
  c432
  c433
  c434
  c435
  c436
  c444
  c445
  c447
  c45
  c454
  c456
  c457
  c460
  c464
  c465
  c466
  c470
  c473
  c476
  c478
  c482
  c483
  c487
  c488
  c489
  c49
  c494
  c495
  c497
  c500
  c503
  c504
  c505
  c506
  c507
  c508
  c51
  c517
  c518
  c520
  c527
  c529
  c530
  c533
  c537
  c538
  c539
  c54
  c543
  c546
  c548
  c549
  c551
  c555
  c556
  c558
  c560
  c561
  c568
  c570
  c573
  c576
  c577
  c578
  c580
  c581
  c590
  c591
  c598
  c6
  c602
  c606
  c61
  c610
  c614
  c618
  c621
  c622
  c623
  c635
  c637
  c638
  c64
  c646
  c648
  c649
  c650
  c651
  c652
  c653
  c657
  c661
  c665
  c669
  c67
  c673
  c675
  c676
  c677
  c679
  c685
  c686
  c688
  c691
  c695
  c696
  c697
  c700
  c701
  c704
  c706
  c707
  c709
  c710
  c715
  c719
  c721
  c723
  c726
  c727
  c728
  c73
  c733
  c734
  c736
  c742
  c743
  c744
  c745
  c746
  c747
  c748
  c756
  c757
  c758
  c759
  c760
  c767
  c769
  c77
  c770
  c772
  c775
  c776
  c777
  c778
  c782
  c785
  c787
  c788
  c790
  c791
  c794
  c796
  c799
  c80
  c800
  c801
  c806
  c807
  c809
  c815
  c816
  c817
  c818
  c819
  c820
  c821
  c829
  c83
  c830
  c831
  c833
  c839
  c840
  c842
  c845
  c849
  c850
  c851
  c855
  c858
  c861
  c862
  c863
  c864
  c867
  c869
  c872
  c873
  c874
  c877
  c879
  c880
  c882
  c888
  c889
  c890
  c891
  c892
  c893
  c894
  c902
  c903
  c909
  c91
  c910
  c914
  c918
  c922
  c925
  c926
  c930
  c931
  c932
  c933
  c934
  c937
  c939
  c940
  c947
  c949
  c95
  c950
  c958
  c959
  c960
  c961
  c962
  c963
  c964
  c965
  c966
  c967
  c968
  c969
  c97
  c973
  c976
  c977
  c981
  c984
  c985
  c987
  c988
  c990
  c991
  c997
  c998 )
